p wcnf 172 203 204 
1 -138 43 0 
1 101 121 0 
1 -139 59 0 
1 -12 -116 0 
1 -32 -162 0 
1 -10 -132 0 
1 -100 -122 0 
1 -152 139 0 
1 -112 -18 0 
1 33 -1 0 
1 91 -166 0 
1 -33 30 0 
1 163 1 0 
1 52 118 0 
1 -33 40 0 
1 1 89 0 
1 40 65 0 
1 70 -165 0 
1 160 74 0 
1 -148 48 0 
1 -37 127 0 
1 -125 58 0 
1 -152 -25 0 
1 2 106 0 
1 -132 -113 0 
1 170 34 0 
1 29 -45 0 
1 44 -97 0 
1 -106 80 0 
1 -6 -1 0 
1 48 -124 0 
1 42 106 0 
1 -81 101 0 
1 -130 155 0 
1 -83 -152 0 
1 -107 -60 0 
1 35 -64 0 
1 -36 16 0 
1 -120 50 0 
1 152 -130 0 
1 42 -139 0 
1 81 -7 0 
1 32 166 0 
1 -117 103 0 
1 126 64 0 
1 -137 140 0 
1 -12 -137 0 
1 -169 51 0 
1 -4 3 0 
1 42 62 0 
1 -50 76 0 
1 -40 73 0 
1 129 -76 0 
1 122 -112 0 
1 100 -58 0 
1 19 167 0 
1 -1 -31 0 
1 140 57 0 
1 -112 -23 0 
1 -153 16 0 
1 123 78 0 
1 32 -139 0 
1 -81 -151 0 
1 71 58 0 
1 12 -139 0 
1 -68 -104 0 
1 -46 95 0 
1 -46 -146 0 
1 28 55 0 
1 -107 6 0 
1 -19 88 0 
1 109 -50 0 
1 -144 -16 0 
1 126 141 0 
1 90 49 0 
1 170 4 0 
1 -31 40 0 
1 20 -38 0 
1 70 97 0 
1 -103 111 0 
1 47 17 0 
1 -12 52 0 
1 -38 68 0 
1 21 56 0 
1 36 -162 0 
1 16 -26 0 
1 72 -170 0 
1 50 139 0 
1 -39 -164 0 
1 -145 -7 0 
1 -90 171 0 
1 152 -104 0 
1 -171 115 0 
1 -39 -169 0 
1 -160 20 0 
1 28 -87 0 
1 62 163 0 
1 -77 -39 0 
1 -107 81 0 
1 163 67 0 
1 -35 -73 0 
1 -3 77 0 
1 -133 -110 0 
1 -45 97 0 
1 -163 104 0 
1 119 99 0 
1 -149 -102 0 
1 86 -46 0 
1 144 63 0 
1 162 107 0 
1 58 157 0 
1 159 21 0 
1 -40 49 0 
1 70 -41 0 
1 -158 107 0 
1 33 43 0 
1 146 56 0 
1 -170 14 0 
1 -31 114 0 
1 132 -96 0 
1 97 -127 0 
1 -31 -84 0 
1 24 66 0 
1 -128 145 0 
1 47 36 0 
1 8 -14 0 
1 37 84 0 
1 -101 -116 0 
1 -4 -19 0 
1 134 142 0 
1 148 89 0 
1 172 -134 0 
1 -148 -53 0 
1 73 -143 0 
1 -25 -104 0 
1 -121 60 0 
1 99 -80 0 
1 -45 72 0 
1 -89 -65 0 
1 -98 -165 0 
1 35 -123 0 
1 -1 115 0 
1 60 150 0 
1 42 171 0 
1 170 89 0 
1 -34 154 0 
1 -148 127 0 
1 -29 -129 0 
1 79 17 0 
1 115 -35 0 
1 171 94 0 
1 132 -137 0 
1 158 164 0 
1 41 -29 0 
1 -106 -53 0 
1 -68 -102 0 
1 157 -20 0 
1 -171 157 0 
1 24 -168 0 
1 -100 -96 0 
1 -163 83 0 
1 132 -47 0 
1 121 -102 0 
1 -135 11 0 
1 95 -135 0 
1 11 86 0 
1 94 -161 0 
1 150 -22 0 
1 -165 -139 0 
1 115 -24 0 
1 111 -16 0 
1 21 90 0 
1 -53 83 0 
1 -48 7 0 
1 -125 -10 0 
1 63 -28 0 
1 -36 125 0 
1 147 -75 0 
1 52 -51 0 
1 -57 168 0 
1 -20 114 0 
1 27 83 0 
1 -129 67 0 
1 57 135 0 
1 136 138 0 
1 16 163 0 
1 -102 -37 0 
1 -120 108 0 
1 143 -120 0 
1 -95 113 0 
1 -76 -63 0 
1 167 -161 0 
1 139 -3 0 
1 -69 82 0 
1 -22 -123 0 
1 120 -121 0 
1 102 141 0 
1 -110 -79 0 
1 -55 -143 0 
1 -46 48 0 
1 -137 -34 0 
1 160 -91 0 
1 -162 54 0 
